proyfinal/src/viki/013/experimentInOfficeAgust.take6.output/87f1587c-daaf-4a7d-b809-0afcfa617dae.als.dat
{'cnf.clauses': '118081',
 'cnf.totvars': '69608',
 'conflict literals': '145',
 'conflicts': '30',
 'decisions': '3465',
 'memused.mb': '15.96',
 'outcome': 'UNSAT',
 'propagations': '67898',
 'restarts': '1',
 'solver.msecs': 34,
 'task.msecs': 207}
