proyfinal/src/viki/013/experimentInOfficeAgust.take6.output/87f1587c-daaf-4a7d-b809-0afcfa617dae.als.out
Reading from standard input... Use '--help' for help.
============================[ Problem Statistics ]=============================
|                                                                             |
|  Number of variables:         69608                                         |
|  Number of clauses:          118081                                         |
|  Parse time:                   0.02 s                                       |
|                                                                             |
============================[ Search Statistics ]==============================
| Conflicts |          ORIGINAL         |          LEARNT          | Progress |
|           |    Vars  Clauses Literals |    Limit  Clauses Lit/Cl |          |
===============================================================================
===============================================================================
restarts              : 1
conflicts             : 30             (875 /sec)
decisions             : 3465           (0.00 % random) (101044 /sec)
propagations          : 67898          (1979995 /sec)
conflict literals     : 145            (17.14 % deleted)
Memory used           : 15.96 MB
CPU time              : 0.034292 s

UNSATISFIABLE
